10 10 3

0 484 258 254 152 487 193 429 421 447 
442 0 190 453 65 143 273 85 279 174 
445 56 0 357 467 209 366 247 424 377 
449 68 285 0 409 258 493 162 117 479 
305 496 156 252 0 437 52 204 208 145 
183 243 130 63 394 0 137 371 360 52 
236 106 427 320 262 201 0 104 170 165 
97 282 232 282 86 227 144 0 288 370 
146 199 77 449 88 477 78 102 0 371 
165 179 437 168 365 494 301 391 255 0 

194.5 0 7
194.5 1 2
194.5 2 3
194.5 3 7
194.5 4 3
194.5 5 6
194.5 6 1
194.5 7 3
194.5 8 2
194.5 9 0

